NAME : RAT99C.1370.tour
COMMENT : Cost = 0_1370
COMMENT : Found by LKH [Keld Helsgaun] Sun Sep 17 16:52:41 2017
TYPE : TOUR
DIMENSION : 99
TOUR_SECTION
1
2
11
20
19
21
22
23
24
18
9
8
7
6
5
4
14
25
26
33
34
44
45
54
53
52
51
50
40
39
48
47
55
56
57
58
59
49
60
61
62
63
72
81
80
71
70
69
78
77
68
67
66
75
76
84
85
86
87
88
79
89
90
99
98
97
96
95
94
93
92
91
83
82
73
74
65
64
46
38
37
28
29
30
31
32
41
42
43
35
36
27
17
16
15
13
12
3
10
-1
EOF
